WARNING: for repeatability, setting FPU to use double precision
============================[ Problem Statistics ]=============================
|                                                                             |
|  Number of variables:          1062                                         |
|  Number of clauses:           19412                                         |
|  Parse time:                   0.00 s                                       |
|                                                                             |
c ============================[ Search Statistics ]==============================
c | Conflicts |          ORIGINAL         |          LEARNT          | Progress |
c |           |    Vars  Clauses Literals |    Limit  Clauses Lit/Cl |          |
c ===============================================================================
c Switched to VSIDS.
c Switched to LRB.
c Switched to VSIDS.
c Switched to LRB.
c Switched to VSIDS.
c Switched to LRB.
c Switched to VSIDS.
c Switched to LRB.
c Switched to VSIDS.
c Switched to LRB.
c Switched to VSIDS.
c Switched to LRB.
c Switched to VSIDS.
c Switched to LRB.
c Switched to VSIDS.
c Switched to LRB.
c Switched to VSIDS.
c Switched to LRB.
c ===============================================================================
restarts                  : 9198
conflicts                 : 6309117        (3800 /sec)
decisions                 : 7635383        (0.00 % random) (4599 /sec)
propagations              : 1411760586     (850289 /sec)
conflict literals         : 238563867      (39.84 % deleted)

conflicts w/ DIP found    : 3931093        (62.31 % of conflicts)
conflicts w/ dangerous DIP: 0              (0.00 % of conflicts)
conflicts w/ DIP-learning : 43258          (0.69 % of conflicts)
decisions on ext vars     : 2452           (0.03 % of decisions)
total ext vars            : 16337       
tried delete ext vars     : 15784       
deleted ext vars          : 15697       
max ext vars              : 1878        

Memory used               : 129.00 MB
CPU time                  : 1660.33 s
DIP computation time      : 42.1023 s (2.54 % of total time)
ER_sel time               : 6.43446 s
ER_add time               : 0.053041 s
ER_delC time              : 0 s
ER_delV time              : 0.552178 s
ER_sub time               : 8.00441 s
ER_stat time              : 0 s

UNSATISFIABLE
